Requirement = array2d(1..3, 1..3, [1000, 1400, 1000, 500, 2000, 1500, 0, 2500, 2000]);
Strength = [2000, 1500, 1000];
LessOneWaste = [0.25, 0.2, 0.1];
MoreOneWaste = [0.1, 0.05, 0.05];
Recruit = [500, 800, 500];
CostRedundancy = [200, 500, 500];
NumOverman = 150;
CostOverman = [1500, 2000, 3000];
NumShortwork = 50;
CostShort = [500, 400, 400];
